c FILE /home/rafael/Documents/HappySet/MIHS/inputs/happygen/output/graph_scale_free_k10_p0.3_v100_20241127_083913.txt
c SOURCE This is a scale-free graph formed for the happy graph colouring problem.
c DESCRIPTION It was generated using the problem generator of Rhyd Lewis
c
c GRAPH STATS
c Seed                             = -326656949
c Number of Nodes                  = 100
c Number of colours k              = 10
c Number of pre-assignments        = 30
c Number of links per new node     = 5
c Density                          = 0.0979798
c 
c The degrees of nodes 1 to 100, respectively, are as follows 
c [38, 33, 33, 31, 29, 26, 24, 24, 19, 18, 18, 18, 16, 16, 16, 14, 13, 13, 13, 13, 12, 12, 12, 11, 11, 11, 
c  11, 10, 10, 10, 10, 10, 9, 9, 9, 8, 8, 8, 8, 8, 8, 8, 8, 8, 8, 7, 7, 7, 7, 7, 6, 
c  6, 6, 6, 6, 6, 6, 6, 6, 6, 6, 6, 6, 6, 6, 6, 6, 6, 6, 6, 6, 6, 6, 5, 5, 5, 
c  5, 5, 5, 5, 5, 5, 5, 5, 5, 5, 5, 5, 5, 5, 5, 5, 5, 5, 5, 5, 5, 5, 5, 5] 
c  
p edge 100 485 10
e 1 2
e 1 3
e 1 4
e 1 5
e 1 7
e 1 8
e 1 9
e 1 10
e 1 11
e 1 12
e 1 13
e 1 14
e 1 15
e 1 16
e 1 21
e 1 26
e 1 28
e 1 29
e 1 36
e 1 41
e 1 46
e 1 49
e 1 50
e 1 53
e 1 56
e 1 57
e 1 58
e 1 61
e 1 65
e 1 67
e 1 74
e 1 76
e 1 81
e 1 82
e 1 94
e 1 97
e 1 98
e 1 99
e 2 3
e 2 4
e 2 5
e 2 7
e 2 8
e 2 10
e 2 11
e 2 12
e 2 13
e 2 14
e 2 15
e 2 18
e 2 20
e 2 23
e 2 25
e 2 29
e 2 30
e 2 35
e 2 40
e 2 48
e 2 51
e 2 52
e 2 58
e 2 59
e 2 72
e 2 75
e 2 77
e 2 78
e 2 86
e 2 87
e 2 88
e 2 94
e 3 4
e 3 5
e 3 6
e 3 10
e 3 11
e 3 16
e 3 17
e 3 19
e 3 20
e 3 21
e 3 22
e 3 24
e 3 25
e 3 28
e 3 30
e 3 32
e 3 34
e 3 38
e 3 43
e 3 48
e 3 55
e 3 57
e 3 59
e 3 61
e 3 68
e 3 82
e 3 83
e 3 85
e 3 96
e 3 99
e 3 100
e 4 5
e 4 7
e 4 8
e 4 9
e 4 10
e 4 13
e 4 15
e 4 16
e 4 17
e 4 18
e 4 21
e 4 23
e 4 25
e 4 31
e 4 35
e 4 37
e 4 38
e 4 39
e 4 47
e 4 49
e 4 53
e 4 59
e 4 64
e 4 72
e 4 74
e 4 78
e 4 80
e 4 85
e 5 6
e 5 7
e 5 8
e 5 9
e 5 10
e 5 11
e 5 13
e 5 17
e 5 22
e 5 23
e 5 24
e 5 25
e 5 28
e 5 30
e 5 33
e 5 34
e 5 44
e 5 50
e 5 51
e 5 54
e 5 57
e 5 66
e 5 90
e 5 95
e 5 97
e 6 7
e 6 8
e 6 9
e 6 10
e 6 12
e 6 17
e 6 27
e 6 29
e 6 31
e 6 34
e 6 35
e 6 39
e 6 40
e 6 46
e 6 52
e 6 53
e 6 55
e 6 61
e 6 64
e 6 70
e 6 71
e 6 74
e 6 88
e 6 89
e 7 10
e 7 12
e 7 13
e 7 16
e 7 24
e 7 26
e 7 32
e 7 39
e 7 43
e 7 44
e 7 46
e 7 52
e 7 53
e 7 55
e 7 56
e 7 57
e 7 61
e 7 75
e 7 81
e 8 10
e 8 15
e 8 19
e 8 20
e 8 21
e 8 24
e 8 35
e 8 36
e 8 44
e 8 45
e 8 48
e 8 51
e 8 53
e 8 60
e 8 69
e 8 72
e 8 77
e 8 89
e 8 90
e 9 10
e 9 30
e 9 33
e 9 38
e 9 43
e 9 46
e 9 47
e 9 54
e 9 55
e 9 60
e 9 70
e 9 79
e 9 81
e 9 85
e 9 96
e 10 14
e 10 16
e 10 18
e 10 21
e 10 28
e 10 52
e 10 58
e 10 68
e 10 89
e 11 14
e 11 16
e 11 17
e 11 22
e 11 24
e 11 48
e 11 56
e 11 67
e 11 68
e 11 71
e 11 74
e 11 75
e 11 86
e 11 99
e 12 16
e 12 20
e 12 22
e 12 23
e 12 37
e 12 45
e 12 49
e 12 60
e 12 62
e 12 69
e 12 71
e 12 73
e 12 78
e 12 86
e 13 14
e 13 18
e 13 26
e 13 28
e 13 37
e 13 43
e 13 56
e 13 66
e 13 76
e 13 84
e 13 98
e 14 19
e 14 22
e 14 27
e 14 42
e 14 46
e 14 67
e 14 71
e 14 72
e 14 87
e 14 93
e 14 96
e 15 17
e 15 23
e 15 26
e 15 36
e 15 37
e 15 42
e 15 48
e 15 70
e 15 73
e 15 84
e 15 87
e 15 93
e 16 25
e 16 33
e 16 36
e 16 47
e 16 54
e 16 58
e 16 59
e 17 26
e 17 36
e 17 41
e 17 58
e 17 62
e 17 63
e 17 87
e 18 24
e 18 35
e 18 42
e 18 51
e 18 63
e 18 64
e 18 75
e 18 82
e 18 92
e 19 21
e 19 22
e 19 39
e 19 63
e 19 65
e 19 77
e 19 80
e 19 82
e 19 91
e 19 94
e 20 29
e 20 36
e 20 39
e 20 47
e 20 59
e 20 64
e 20 69
e 20 71
e 20 93
e 21 38
e 21 41
e 21 44
e 21 45
e 21 76
e 21 91
e 22 34
e 22 43
e 22 54
e 22 80
e 22 84
e 22 94
e 23 50
e 23 56
e 23 72
e 23 73
e 23 81
e 23 92
e 23 100
e 24 27
e 24 37
e 24 67
e 24 76
e 24 81
e 25 27
e 25 33
e 25 41
e 25 50
e 25 57
e 25 95
e 26 27
e 26 29
e 26 30
e 26 38
e 26 45
e 26 100
e 27 33
e 27 40
e 27 44
e 27 60
e 27 89
e 27 92
e 28 32
e 28 40
e 28 49
e 28 75
e 28 77
e 29 32
e 29 63
e 29 70
e 29 78
e 29 92
e 30 40
e 30 42
e 30 69
e 30 70
e 30 92
e 31 35
e 31 38
e 31 40
e 31 45
e 31 66
e 31 78
e 31 79
e 31 83
e 32 44
e 32 69
e 32 80
e 32 82
e 32 90
e 32 97
e 33 49
e 33 52
e 33 77
e 33 97
e 34 37
e 34 54
e 34 65
e 34 85
e 34 93
e 35 63
e 35 65
e 35 79
e 36 47
e 36 91
e 37 41
e 37 51
e 38 74
e 38 76
e 39 42
e 39 64
e 39 86
e 40 66
e 40 83
e 41 61
e 41 62
e 41 88
e 42 50
e 42 62
e 42 96
e 43 66
e 43 68
e 43 79
e 44 88
e 44 98
e 45 73
e 45 95
e 45 100
e 46 55
e 46 80
e 47 65
e 47 94
e 48 68
e 48 91
e 49 62
e 49 90
e 50 67
e 50 84
e 51 79
e 52 86
e 53 98
e 54 90
e 55 88
e 56 93
e 57 95
e 58 60
e 59 99
e 60 83
e 61 87
e 62 84
e 63 89
e 64 73
e 65 83
e 66 97
e 67 91
e 68 98
e 69 85
e 70 96
e 71 95
e 72 99
e 73 100
n 10 1
n 26 7
n 27 7
n 34 3
n 38 7
n 39 10
n 41 2
n 43 1
n 46 9
n 47 6
n 48 1
n 49 2
n 51 4
n 53 4
n 57 10
n 60 7
n 62 2
n 64 10
n 67 8
n 68 1
n 69 10
n 70 5
n 78 4
n 82 6
n 83 7
n 92 7
n 93 3
n 94 6
n 97 2
n 100 7
